p = 50;
s = 25;
b = 12;
c = 10;
t = 5;
g = 12;
graph = [| 1,0,0,1,1,1,1,1,1,1,1,1,0,1,0,1,0,0,1,1,1,1,1,1,0
	| 1,1,0,1,1,1,1,0,0,1,1,0,0,0,0,1,0,0,0,1,1,1,1,1,0
	| 1,1,1,0,1,1,1,1,1,1,0,1,1,0,1,1,1,1,1,0,0,1,1,1,1
	| 1,1,0,1,1,0,0,0,1,1,1,1,0,1,0,1,1,0,1,1,1,1,0,0,1
	| 1,1,1,1,1,1,1,1,0,1,0,1,1,1,1,1,1,1,1,1,1,0,1,1,1
	| 1,1,1,0,1,1,0,1,0,0,1,1,0,1,1,1,1,1,1,1,1,1,1,1,1
	| 1,1,1,1,1,1,1,0,1,0,1,1,0,1,1,1,1,0,1,1,1,1,1,1,0
	| 1,1,0,1,1,1,0,1,1,1,1,1,1,0,0,1,1,1,0,1,1,1,1,0,1
	| 0,1,0,1,0,1,0,1,0,1,1,1,1,0,1,0,1,0,0,1,0,1,1,0,0
	| 0,0,0,1,1,1,1,0,0,1,0,1,1,1,1,1,1,1,1,0,0,1,1,1,1
	| 1,1,1,0,1,1,0,1,0,0,1,1,0,1,1,1,1,1,1,1,1,1,1,1,0
	| 0,0,0,1,0,0,1,1,1,1,1,0,0,0,1,1,1,1,0,1,1,1,1,1,0
	| 1,0,0,1,0,1,1,1,1,1,1,0,1,0,0,0,1,1,1,1,1,1,1,1,1
	| 0,1,1,0,1,0,1,1,1,1,0,1,1,1,0,1,0,0,1,0,0,1,1,1,1
	| 1,0,0,1,0,1,1,1,1,0,1,0,1,0,1,0,1,0,1,1,1,1,1,1,1
	| 1,1,0,1,1,1,0,1,1,1,0,1,0,1,0,1,1,1,1,1,1,1,1,1,1
	| 1,0,1,0,1,1,0,1,1,1,0,1,0,1,1,1,0,0,1,1,1,1,1,1,1
	| 0,0,0,1,0,1,1,1,0,0,1,1,0,0,0,0,1,1,0,1,0,1,1,1,1
	| 0,1,0,0,1,1,1,1,0,0,1,0,1,1,1,1,0,1,1,1,1,1,1,1,0
	| 1,0,1,0,1,0,1,0,0,1,1,0,0,0,1,1,1,0,1,1,0,0,1,1,0
	| 1,1,0,1,1,0,1,1,0,1,1,1,1,1,0,0,0,1,0,1,0,0,1,1,0
	| 1,1,0,1,0,0,1,0,0,1,1,1,1,0,1,1,1,1,1,1,1,1,1,1,1
	| 1,1,1,1,0,0,1,0,1,1,1,1,1,1,1,1,0,1,0,1,1,1,1,1,1
	| 0,1,1,0,1,0,0,0,0,1,1,0,1,0,1,1,1,1,1,0,1,1,0,1,1
	| 0,1,1,0,0,0,0,1,1,1,0,1,1,1,0,0,1,1,1,0,1,0,1,0,1
	| 0,1,1,1,0,1,1,1,1,1,1,1,0,0,1,1,1,1,1,1,1,1,1,1,1
	| 1,1,1,1,1,1,0,1,1,1,1,1,1,1,0,1,0,0,1,0,0,0,1,1,1
	| 0,1,1,1,0,1,1,1,1,0,0,0,1,0,0,1,1,1,1,0,0,1,1,1,1
	| 1,0,1,1,0,1,1,1,1,0,1,0,1,1,0,0,1,1,1,1,0,0,1,1,1
	| 1,1,1,1,0,1,1,1,1,1,1,1,1,0,1,0,1,1,1,1,1,1,1,1,1
	| 0,1,0,1,0,1,0,1,1,1,1,1,1,1,0,1,1,0,1,0,1,1,0,1,0
	| 1,0,1,0,1,1,1,0,0,1,1,0,1,1,0,0,1,1,1,1,0,1,1,1,1
	| 1,1,0,1,0,1,0,0,0,0,1,1,1,1,0,0,0,1,0,1,0,1,1,1,1
	| 0,1,1,0,1,1,1,0,0,1,1,1,1,1,0,0,1,1,1,1,0,1,1,1,1
	| 1,0,1,1,1,0,0,1,0,1,1,1,1,0,1,0,1,1,1,0,1,1,0,1,1
	| 1,1,1,1,1,0,1,0,1,1,1,0,1,1,1,0,1,1,0,1,0,1,1,0,1
	| 1,1,1,1,1,1,0,1,1,0,1,1,1,0,1,1,0,1,0,1,1,1,0,0,1
	| 0,1,0,0,1,0,1,1,1,1,0,1,1,0,0,1,1,1,1,0,0,0,1,1,0
	| 0,0,1,0,1,0,1,1,1,0,1,0,0,1,0,1,0,1,1,1,1,0,0,1,1
	| 1,0,0,1,0,1,0,1,1,1,1,1,0,1,0,1,1,1,1,0,0,1,1,1,1
	| 1,0,1,1,1,1,1,0,1,0,1,0,1,0,1,0,1,1,1,0,1,1,0,1,0
	| 0,1,1,1,1,1,0,0,1,1,1,1,1,1,1,1,0,0,0,0,0,1,1,0,1
	| 1,0,1,1,0,0,1,1,0,0,0,0,1,1,0,0,0,1,0,1,1,1,1,0,1
	| 1,1,0,0,1,0,1,1,1,1,1,1,0,0,0,1,0,0,1,1,1,1,0,0,1
	| 1,1,1,0,1,0,1,0,1,1,1,0,0,1,1,1,1,0,1,1,0,0,0,1,0
	| 0,0,1,1,1,1,1,1,0,1,1,1,0,1,1,0,1,1,0,1,1,1,1,1,0
	| 1,1,0,0,1,1,0,1,1,1,0,1,0,1,0,1,0,1,1,1,1,1,1,0,1
	| 1,1,1,1,1,1,0,1,1,1,1,1,0,1,1,1,1,0,1,1,1,1,1,0,0
	| 1,1,1,1,1,1,1,1,1,1,1,1,1,0,1,1,1,1,0,1,1,1,0,0,0
	| 1,1,0,1,1,1,1,1,0,0,0,1,1,1,0,0,1,0,1,0,1,1,0,1,1
	|];
groups = [
	{29,39,4},{13,33},{15,5,40,50,11,25},{32,6,20},{37,22,2,45},{12,27},{28,31},{35,23,30,3,26,41},{18,14,19,46,34},{7,38,1},{9,42,48},{}
]